% Generado automaticamente desde C:/Users/andres/Desktop/SEPTIMO SEMESTRE/ADAII/proyecto_final/Proyecto-Optimizacion-ADA2/BateriaPruebas_2025_2_P2/Prueba12.txt

n = 50;
m = 3;
ct = 50.0;
maxMovs = 45.0;
v = [0.168, 0.257, 0.478];
p = [24, 22, 4];
s = [| 13, 8, 3 | 9, 7, 6 | 0, 1, 3 |];
